0 4178
2401 4074
4802 4013
7203 3951
9604 3898
12005 3857
14406 3823
16807 3793
19208 3747
21609 3721
24010 3706
26411 3693
28812 3686
31213 3665
33614 3641
36015 3630
38416 3618
40817 3606
43218 3598
45619 3590
48020 3586
50421 3577
52822 3575
55223 3572
57624 3568
60025 3561
62426 3558
64827 3554
67228 3549
69629 3543
72030 3538
